Route #1: 52 106 90 7 35 3 125
Route #2: 109 31 28 2 47 80 37 56
Route #3: 64 41 23 48 95 77
Route #4: 50 117 51 67 25
Route #5: 21 5 42 108 102
Route #6: 18 60 20 10 29 98
Route #7: 96 30 105 72 120 55 85
Route #8: 63 86 118 110 26 69 119 66 81 59
Route #9: 99 46
Route #10: 65 78 8 68 73 122
Route #11: 70 54 34
Route #12: 33 6 49
Route #13: 76 38
Route #14: 104 13
Route #15: 114 40 58
Route #16: 9 36
Route #17: 11 121
Route #18: 24 116 89 71 79 16 14
Route #19: 113 19
Route #20: 92 101 62
Route #21: 84 22
Route #22: 74 100 17 91
Route #23: 75 93 12 115 88 82 43
Route #24: 83 57
Route #25: 123 111 44
Route #26: 15 124 45 53 4
Route #27: 87 97
Route #28: 39 103
Route #29: 32 61
Route #30: 107 112
Route #31: 94 27
